c User generated cnf file
p cnf 14 21
1 10 -2 0 
-1 7 3 0 
-4 1 4 0 
5 12 -5 0 
13 8 -5 0 
6 13 -12 0 
-12 13 8 0 
-11 7 12 0 
4 -8 9 0 
-12 5 13 0 
-12 3 5 0 
14 -12 3 0 
5 1 -10 0 
11 -9 7 0 
4 3 -8 0 
8 -8 4 0 
2 -10 10 0 
8 7 -12 0 
7 2 -3 0 
7 11 -8 0 
-14 13 13 0 
